experiment/data/lkh-res/Vrp-Set-B-n56/Vrp-Set-B-n56-lkh/0.lkh1.vrp
NAME : 0
COMMENT : CVRP Instance
TYPE : CVRP
DIMENSION : 56
EDGE_WEIGHT_TYPE : EUC_2D
CAPACITY : 100
NODE_COORD_SECTION
1	8700	4500
2	9300	4100
3	7500	9500
4	8900	5500
5	8900	1900
6	2100	900
7	8100	3100
8	7900	2500
9	3000	1800
10	500	500
11	3100	2100
12	8400	9800
13	1000	800
14	9000	5800
15	2400	1600
16	8000	2600
17	9600	4200
18	2800	1800
19	3700	2300
20	3900	2700
21	7800	10400
22	9800	2600
23	800	1200
24	1000	1200
25	8200	3000
26	8200	3800
27	9400	2400
28	9400	4400
29	3000	1600
30	8400	2800
31	7600	9600
32	7600	10200
33	9800	5800
34	9000	6400
35	7600	9600
36	10000	4400
37	9400	5600
38	8400	2600
39	600	1200
40	9000	2400
41	2600	1200
42	8400	3000
43	8600	2800
44	3100	2700
45	2400	1600
46	8400	3000
47	3300	1900
48	9000	2800
49	9400	5000
50	9200	6000
51	800	1200
52	2400	1600
53	9400	4200
54	8200	3200
55	7600	9600
56	8000	10000
DEMAND_SECTION
1	0
2	10
3	15
4	7
5	25
6	16
7	8
8	15
9	23
10	8
11	2
12	14
13	7
14	15
15	14
16	7
17	14
18	11
19	7
20	6
21	1
22	22
23	26
24	5
25	18
26	18
27	4
28	10
29	3
30	2
31	12
32	6
33	15
34	12
35	5
36	7
37	12
38	24
39	6
40	12
41	5
42	18
43	3
44	7
45	15
46	23
47	20
48	5
49	24
50	6
51	19
52	5
53	10
54	3
55	4
56	5
DEPOT_SECTION
1
-1
EOF
