experiment/data/lkh-res/Vrp-Set-B-n56/Vrp-Set-B-n56-lkh/0.lkh1.tour
NAME : 0.71287.tour
COMMENT : Length = 71287
COMMENT : Found by LKH-3 [Keld Helsgaun] Tue Apr  9 00:58:54 2024
TYPE : TOUR
DIMENSION : 62
TOUR_SECTION
1
34
12
56
21
32
31
35
55
3
20
26
59
44
24
51
23
39
10
13
6
41
61
4
14
50
33
37
49
58
54
7
25
16
8
38
30
46
60
42
43
48
40
5
27
22
57
2
53
17
36
28
62
19
11
9
18
15
45
52
29
47
-1
EOF
